SYSTEM = TMDC-mono
ISMEAR = 0
SIGMA = 0.15
ENCUT = 350
ICHARG = 11
NBANDS = 32
EDIFF = 1E-6
ISYM = 0
LMAXMIX = 4
LWAVE = .FALSE. 
