k-points for bandstructure L-M-K-L
 50
line
reciprocal
0.0 0.0 0.0
0.5 0.0 0.0

0.5 0.0 0.0
0.6666666667 0.3333333333 0.0

0.6666666667 0.3333333333 0.0
0.0 0.0 0.0
