SYSTEM = TMDC-TaS2
ISTART = 0
ISMEAR = -5
SIGMA = 0.15
ENCUT = 350
ISYM = 0 
LMAXMIX = 4
EDIFF = 1E-6
LVTOT = .TRUE.
